NAME: ETSP
COMMENT: Generated by write_TSPLIB (R package TSP)
TYPE: TSP
DIMENSION: 140
EDGE_WEIGHT_TYPE: EUC_2D
NODE_COORD_SECTION
1 2.500000e-01 -2.819167e+00
2 7.500000e-01 -4.844390e+00
3 1.250000e+00 -6.203912e+00
4 1.750000e+00 -7.280723e+00
5 2.250000e+00 -8.187145e+00
6 2.750000e+00 -8.974951e+00
7 3.250000e+00 -9.673167e+00
8 3.750000e+00 -1.030003e+01
9 4.250000e+00 -1.086789e+01
10 4.750000e+00 -1.138558e+01
11 5.250000e+00 -1.138558e+01
12 5.750000e+00 -1.086789e+01
13 6.250000e+00 -1.030003e+01
14 6.750000e+00 -9.673167e+00
15 7.250000e+00 -8.974951e+00
16 7.750000e+00 -8.187145e+00
17 8.250000e+00 -7.280723e+00
18 8.750000e+00 -6.203912e+00
19 9.250000e+00 -4.844390e+00
20 9.750000e+00 -2.819167e+00
21 2.500000e-01 -2.210538e+00
22 7.500000e-01 -3.779476e+00
23 1.250000e+00 -4.814810e+00
24 1.750000e+00 -5.619640e+00
25 2.250000e+00 -6.283177e+00
26 2.750000e+00 -6.846625e+00
27 3.250000e+00 -7.333092e+00
28 3.750000e+00 -7.757074e+00
29 4.250000e+00 -8.128355e+00
30 4.750000e+00 -8.453881e+00
31 5.250000e+00 -8.453881e+00
32 5.750000e+00 -8.128355e+00
33 6.250000e+00 -7.757074e+00
34 6.750000e+00 -7.333092e+00
35 7.250000e+00 -6.846625e+00
36 7.750000e+00 -6.283177e+00
37 8.250000e+00 -5.619640e+00
38 8.750000e+00 -4.814810e+00
39 9.250000e+00 -3.779476e+00
40 9.750000e+00 -2.210538e+00
41 2.500000e-01 -1.746352e+00
42 7.500000e-01 -2.962133e+00
43 1.250000e+00 -3.741487e+00
44 1.750000e+00 -4.327033e+00
45 2.250000e+00 -4.790376e+00
46 2.750000e+00 -5.164513e+00
47 3.250000e+00 -5.467786e+00
48 3.750000e+00 -5.711495e+00
49 4.250000e+00 -5.903022e+00
50 4.750000e+00 -6.047326e+00
51 5.250000e+00 -6.047326e+00
52 5.750000e+00 -5.903022e+00
53 6.250000e+00 -5.711495e+00
54 6.750000e+00 -5.467786e+00
55 7.250000e+00 -5.164513e+00
56 7.750000e+00 -4.790376e+00
57 8.250000e+00 -4.327033e+00
58 8.750000e+00 -3.741487e+00
59 9.250000e+00 -2.962133e+00
60 9.750000e+00 -1.746352e+00
61 0.000000e+00 0.000000e+00
62 7.500000e-01 0.000000e+00
63 1.250000e+00 0.000000e+00
64 1.750000e+00 0.000000e+00
65 2.250000e+00 0.000000e+00
66 2.750000e+00 0.000000e+00
67 3.250000e+00 0.000000e+00
68 3.750000e+00 0.000000e+00
69 4.250000e+00 0.000000e+00
70 4.750000e+00 0.000000e+00
71 5.250000e+00 0.000000e+00
72 5.750000e+00 0.000000e+00
73 6.250000e+00 0.000000e+00
74 6.750000e+00 0.000000e+00
75 7.250000e+00 0.000000e+00
76 7.750000e+00 0.000000e+00
77 8.250000e+00 0.000000e+00
78 8.750000e+00 0.000000e+00
79 9.250000e+00 0.000000e+00
80 9.750000e+00 0.000000e+00
81 2.500000e-01 1.746352e+00
82 7.500000e-01 2.962133e+00
83 1.250000e+00 3.741487e+00
84 1.750000e+00 4.327033e+00
85 2.250000e+00 4.790376e+00
86 2.750000e+00 5.164513e+00
87 3.250000e+00 5.467786e+00
88 3.750000e+00 5.711495e+00
89 4.250000e+00 5.903022e+00
90 4.750000e+00 6.047326e+00
91 5.250000e+00 6.047326e+00
92 5.750000e+00 5.903022e+00
93 6.250000e+00 5.711495e+00
94 6.750000e+00 5.467786e+00
95 7.250000e+00 5.164513e+00
96 7.750000e+00 4.790376e+00
97 8.250000e+00 4.327033e+00
98 8.750000e+00 3.741487e+00
99 9.250000e+00 2.962133e+00
100 9.750000e+00 1.746352e+00
101 2.500000e-01 2.210538e+00
102 7.500000e-01 3.779476e+00
103 1.250000e+00 4.814810e+00
104 1.750000e+00 5.619640e+00
105 2.250000e+00 6.283177e+00
106 2.750000e+00 6.846625e+00
107 3.250000e+00 7.333092e+00
108 3.750000e+00 7.757074e+00
109 4.250000e+00 8.128355e+00
110 4.750000e+00 8.453881e+00
111 5.250000e+00 8.453881e+00
112 5.750000e+00 8.128355e+00
113 6.250000e+00 7.757074e+00
114 6.750000e+00 7.333092e+00
115 7.250000e+00 6.846625e+00
116 7.750000e+00 6.283177e+00
117 8.250000e+00 5.619640e+00
118 8.750000e+00 4.814810e+00
119 9.250000e+00 3.779476e+00
120 9.750000e+00 2.210538e+00
121 2.500000e-01 2.819167e+00
122 7.500000e-01 4.844390e+00
123 1.250000e+00 6.203912e+00
124 1.750000e+00 7.280723e+00
125 2.250000e+00 8.187145e+00
126 2.750000e+00 8.974951e+00
127 3.250000e+00 9.673167e+00
128 3.750000e+00 1.030003e+01
129 4.250000e+00 1.086789e+01
130 4.750000e+00 1.138558e+01
131 5.250000e+00 1.138558e+01
132 5.750000e+00 1.086789e+01
133 6.250000e+00 1.030003e+01
134 6.750000e+00 9.673167e+00
135 7.250000e+00 8.974951e+00
136 7.750000e+00 8.187145e+00
137 8.250000e+00 7.280723e+00
138 8.750000e+00 6.203912e+00
139 9.250000e+00 4.844390e+00
140 9.750000e+00 2.819167e+00
EOF
